
Log started (V11.0.0) Sun Apr 13 12:59:27 2008

Tried aggregator 1 time.
Reduced MIP has 110 rows, 1001 columns, and 2010 nonzeros.
Presolve time =   -0.00 sec.
Clique table members: 100.
MIP emphasis: balance optimality and feasibility.
MIP search method: dynamic search.
Parallel mode: none, using 1 thread.
Root relaxation solution time =    0.02 sec.

        Nodes                                         Cuts/
   Node  Left     Objective  IInf  Best Integer     Best Node    ItCnt     Gap

*     0+    0                         4888.0000      109.7113      219   97.76%
*     0+    0                          134.0000      109.7113      219   18.13%
      0     0      110.4741    23      134.0000      Fract: 9      229   17.56%
*     0+    0                          126.0000      110.4741      229   12.32%
      0     0      110.7847    37      126.0000    MIRcuts: 7      240   12.08%
      0     0      110.8865    39      126.0000       Cuts: 5      250   11.99%
*     0+    0                          124.0000      110.8865      250   10.58%
      0     0      110.8934    42      124.0000    MIRcuts: 1      254   10.57%
*     0+    0                          123.0000      110.8934      254    9.84%
      0     0      110.8947    44      123.0000     Covers: 1      256    9.84%
*     0+    0                          122.0000      110.8947      256    9.10%
*     0+    0                          119.0000      110.8947      256    6.81%
*     0+    0                          118.0000      110.8947      256    6.02%
*     0+    0                          117.0000      110.8947      256    5.22%
*     0+    0                          115.0000      110.8947      256    3.57%

Repeating presolve.
Tried aggregator 1 time.
MIP Presolve eliminated 0 rows and 519 columns.
Aggregator did 6 substitutions.
Reduced MIP has 104 rows, 476 columns, and 960 nonzeros.
Tried aggregator 1 time.
Represolve time =    0.02 sec.
Clique table members: 162.
MIP emphasis: balance optimality and feasibility.
MIP search method: dynamic search.
Parallel mode: none, using 1 thread.
Root relaxation solution time =    0.00 sec.

        Nodes                                         Cuts/
   Node  Left     Objective  IInf  Best Integer     Best Node    ItCnt     Gap

      0     0      111.0000    35      115.0000      111.0000      134    3.48%
      0     2      111.0000    35      115.0000      111.0000      134    3.48%
    100    78      113.0000    28      115.0000      111.0000     2175    3.48%
*   120+   53                          114.0000      111.0129     2666    2.62%
    200   115      113.0000    26      114.0000      112.0000     5033    1.75%
    300   164      113.0000    10      114.0000      112.0000     9391    1.75%
    400   223      113.0000     4      114.0000      112.0000    14053    1.75%
    500   261      113.0000    21      114.0000      113.0000    19336    0.88%
    600   211    infeasible            114.0000      113.0000    28449    0.88%
    700   161      113.0000    48      114.0000      113.0000    39778    0.88%
    800   112      113.0000    51      114.0000      113.0000    52470    0.88%
    900    64      113.0000    65      114.0000      113.0000    68498    0.88%
   1000    36    infeasible            114.0000      113.0000    83625    0.88%
Elapsed time =  10.05 sec. (tree size =  0.01 MB, solutions = 11)

Cover cuts applied:  309
Flow cuts applied:  6
Mixed integer rounding cuts applied:  34
Zero-half cuts applied:  3
Gomory fractional cuts applied:  8

Solution pool: 11 solutions saved.

MIP - Integer optimal solution:  Objective = 1.1400000000e+002
Solution time =   10.77 sec.  Iterations = 90994  Nodes = 1043


Incumbent solution
Variable Name           Solution Value
Cmax                        114.000000
X_1_7                         1.000000
X_2_6                         1.000000
X_3_1                         1.000000
X_4_9                         1.000000
X_5_4                         1.000000
X_6_3                         1.000000
X_7_8                         1.000000
X_8_4                         1.000000
X_9_2                         1.000000
X_10_8                        1.000000
X_11_6                        1.000000
X_12_3                        1.000000
X_13_6                        1.000000
X_14_7                        1.000000
X_15_1                        1.000000
X_16_10                       1.000000
X_17_7                        1.000000
X_18_2                        1.000000
X_19_7                        1.000000
X_20_8                        1.000000
X_21_6                        1.000000
X_22_6                        1.000000
X_23_6                        1.000000
X_24_8                        1.000000
X_25_4                        1.000000
X_26_4                        1.000000
X_27_1                        1.000000
X_28_2                        1.000000
X_29_4                        1.000000
X_30_5                        1.000000
X_31_10                       1.000000
X_32_10                       1.000000
X_33_6                        1.000000
X_34_7                        1.000000
X_35_9                        1.000000
X_36_10                       1.000000
X_37_2                        1.000000
X_38_2                        1.000000
X_39_5                        1.000000
X_40_5                        1.000000
X_41_4                        1.000000
X_42_4                        1.000000
X_43_8                        1.000000
X_44_9                        1.000000
X_45_7                        1.000000
X_46_3                        1.000000
X_47_3                        1.000000
X_48_4                        1.000000
X_49_7                        1.000000
X_50_3                        1.000000
X_51_7                        1.000000
X_52_10                       1.000000
X_53_7                        1.000000
X_54_9                        1.000000
X_55_9                        1.000000
X_56_3                        1.000000
X_57_3                        1.000000
X_58_2                        1.000000
X_59_7                        1.000000
X_60_9                        1.000000
X_61_6                        1.000000
X_62_3                        1.000000
X_63_4                        1.000000
X_64_8                        1.000000
X_65_10                       1.000000
X_66_3                        1.000000
X_67_10                       1.000000
X_68_4                        1.000000
X_69_5                        1.000000
X_70_4                        1.000000
X_71_4                        1.000000
X_72_10                       1.000000
X_73_1                        1.000000
X_74_5                        1.000000
X_75_2                        1.000000
X_76_1                        1.000000
X_77_5                        1.000000
X_78_4                        1.000000
X_79_8                        1.000000
X_80_9                        1.000000
X_81_3                        1.000000
X_82_10                       1.000000
X_83_1                        1.000000
X_84_9                        1.000000
X_85_1                        1.000000
X_86_1                        1.000000
X_87_1                        1.000000
X_88_10                       1.000000
X_89_6                        1.000000
X_90_10                       1.000000
X_91_8                        1.000000
X_92_7                        1.000000
X_93_5                        1.000000
X_94_3                        1.000000
X_95_5                        1.000000
X_96_8                        1.000000
X_97_3                        1.000000
X_98_5                        1.000000
X_99_1                        1.000000
X_100_6                       1.000000
All other variables in the range 1-1001 are 0.
